p tw 80 8401 2 
1 41 
1 44 
1 46 
1 48 
1 50 
1 52 
1 54 
1 56 
1 58 
1 60 
1 62 
1 64 
1 66 
1 68 
1 70 
1 72 
1 74 
1 76 
1 78 
1 80 
2 42 
2 43 
2 45 
2 47 
2 49 
2 51 
2 53 
2 55 
2 57 
2 59 
2 61 
2 63 
2 65 
2 67 
2 69 
2 71 
2 73 
2 75 
2 77 
2 79 
3 4 
3 41 
3 43 
3 46 
3 47 
3 49 
3 52 
3 54 
3 56 
3 58 
3 59 
3 62 
3 63 
3 66 
3 67 
3 69 
3 71 
3 73 
3 76 
3 78 
3 79 
4 42 
4 44 
4 45 
4 48 
4 50 
4 51 
4 53 
4 55 
4 57 
4 60 
4 61 
4 64 
4 65 
4 68 
4 70 
4 72 
4 74 
4 75 
4 77 
4 80 
5 6 
5 41 
5 43 
5 45 
5 48 
5 49 
5 51 
5 54 
5 56 
5 58 
5 60 
5 61 
5 64 
5 65 
5 68 
5 69 
5 71 
5 73 
5 75 
5 78 
5 80 
6 42 
6 44 
6 46 
6 47 
6 50 
6 52 
6 53 
6 55 
6 57 
6 59 
6 62 
6 63 
6 66 
6 67 
6 70 
6 72 
6 74 
6 76 
6 77 
6 79 
7 8 
7 41 
7 44 
7 45 
7 47 
7 50 
7 51 
7 53 
7 56 
7 58 
7 60 
7 62 
7 63 
7 66 
7 67 
7 70 
7 71 
7 73 
7 75 
7 77 
7 80 
8 42 
8 43 
8 46 
8 48 
8 49 
8 52 
8 54 
8 55 
8 57 
8 59 
8 61 
8 64 
8 65 
8 68 
8 69 
8 72 
8 74 
8 76 
8 78 
8 79 
9 10 
9 41 
9 44 
9 46 
9 47 
9 49 
9 52 
9 53 
9 55 
9 58 
9 60 
9 62 
9 64 
9 65 
9 68 
9 69 
9 72 
9 73 
9 75 
9 77 
9 79 
10 42 
10 43 
10 45 
10 48 
10 50 
10 51 
10 54 
10 56 
10 57 
10 59 
10 61 
10 63 
10 66 
10 67 
10 70 
10 71 
10 74 
10 76 
10 78 
10 80 
11 12 
11 41 
11 43 
11 46 
11 48 
11 49 
11 51 
11 54 
11 55 
11 57 
11 60 
11 62 
11 64 
11 66 
11 67 
11 70 
11 71 
11 74 
11 75 
11 77 
11 79 
12 42 
12 44 
12 45 
12 47 
12 50 
12 52 
12 53 
12 56 
12 58 
12 59 
12 61 
12 63 
12 65 
12 68 
12 69 
12 72 
12 73 
12 76 
12 78 
12 80 
13 14 
13 41 
13 43 
13 45 
13 48 
13 50 
13 51 
13 53 
13 56 
13 57 
13 59 
13 62 
13 64 
13 66 
13 68 
13 69 
13 72 
13 73 
13 76 
13 77 
13 79 
14 42 
14 44 
14 46 
14 47 
14 49 
14 52 
14 54 
14 55 
14 58 
14 60 
14 61 
14 63 
14 65 
14 67 
14 70 
14 71 
14 74 
14 75 
14 78 
14 80 
15 16 
15 41 
15 43 
15 45 
15 47 
15 50 
15 52 
15 53 
15 55 
15 58 
15 59 
15 61 
15 64 
15 66 
15 68 
15 70 
15 71 
15 74 
15 75 
15 78 
15 79 
16 42 
16 44 
16 46 
16 48 
16 49 
16 51 
16 54 
16 56 
16 57 
16 60 
16 62 
16 63 
16 65 
16 67 
16 69 
16 72 
16 73 
16 76 
16 77 
16 80 
17 18 
17 41 
17 43 
17 45 
17 47 
17 49 
17 52 
17 54 
17 55 
17 57 
17 60 
17 61 
17 63 
17 66 
17 68 
17 70 
17 72 
17 73 
17 76 
17 77 
17 80 
18 42 
18 44 
18 46 
18 48 
18 50 
18 51 
18 53 
18 56 
18 58 
18 59 
18 62 
18 64 
18 65 
18 67 
18 69 
18 71 
18 74 
18 75 
18 78 
18 79 
19 20 
19 41 
19 44 
19 45 
19 47 
19 49 
19 51 
19 54 
19 56 
19 57 
19 59 
19 62 
19 63 
19 65 
19 68 
19 70 
19 72 
19 74 
19 75 
19 78 
19 79 
20 42 
20 43 
20 46 
20 48 
20 50 
20 52 
20 53 
20 55 
20 58 
20 60 
20 61 
20 64 
20 66 
20 67 
20 69 
20 71 
20 73 
20 76 
20 77 
20 80 
21 22 
21 41 
21 43 
21 46 
21 47 
21 49 
21 51 
21 53 
21 56 
21 58 
21 59 
21 61 
21 64 
21 65 
21 67 
21 70 
21 72 
21 74 
21 76 
21 77 
21 80 
22 42 
22 44 
22 45 
22 48 
22 50 
22 52 
22 54 
22 55 
22 57 
22 60 
22 62 
22 63 
22 66 
22 68 
22 69 
22 71 
22 73 
22 75 
22 78 
22 79 
23 24 
23 41 
23 44 
23 45 
23 48 
23 49 
23 51 
23 53 
23 55 
23 58 
23 60 
23 61 
23 63 
23 66 
23 67 
23 69 
23 72 
23 74 
23 76 
23 78 
23 79 
24 42 
24 43 
24 46 
24 47 
24 50 
24 52 
24 54 
24 56 
24 57 
24 59 
24 62 
24 64 
24 65 
24 68 
24 70 
24 71 
24 73 
24 75 
24 77 
24 80 
25 26 
25 41 
25 43 
25 46 
25 47 
25 50 
25 51 
25 53 
25 55 
25 57 
25 60 
25 62 
25 63 
25 65 
25 68 
25 69 
25 71 
25 74 
25 76 
25 78 
25 80 
26 42 
26 44 
26 45 
26 48 
26 49 
26 52 
26 54 
26 56 
26 58 
26 59 
26 61 
26 64 
26 66 
26 67 
26 70 
26 72 
26 73 
26 75 
26 77 
26 79 
27 28 
27 41 
27 44 
27 45 
27 48 
27 49 
27 52 
27 53 
27 55 
27 57 
27 59 
27 62 
27 64 
27 65 
27 67 
27 70 
27 71 
27 73 
27 76 
27 78 
27 80 
28 42 
28 43 
28 46 
28 47 
28 50 
28 51 
28 54 
28 56 
28 58 
28 60 
28 61 
28 63 
28 66 
28 68 
28 69 
28 72 
28 74 
28 75 
28 77 
28 79 
29 30 
29 41 
29 44 
29 46 
29 47 
29 50 
29 51 
29 54 
29 55 
29 57 
29 59 
29 61 
29 64 
29 66 
29 67 
29 69 
29 72 
29 73 
29 75 
29 78 
29 80 
30 42 
30 43 
30 45 
30 48 
30 49 
30 52 
30 53 
30 56 
30 58 
30 60 
30 62 
30 63 
30 65 
30 68 
30 70 
30 71 
30 74 
30 76 
30 77 
30 79 
31 32 
31 41 
31 44 
31 46 
31 48 
31 49 
31 52 
31 53 
31 56 
31 57 
31 59 
31 61 
31 63 
31 66 
31 68 
31 69 
31 71 
31 74 
31 75 
31 77 
31 80 
32 42 
32 43 
32 45 
32 47 
32 50 
32 51 
32 54 
32 55 
32 58 
32 60 
32 62 
32 64 
32 65 
32 67 
32 70 
32 72 
32 73 
32 76 
32 78 
32 79 
33 34 
33 41 
33 44 
33 46 
33 48 
33 50 
33 51 
33 54 
33 55 
33 58 
33 59 
33 61 
33 63 
33 65 
33 68 
33 70 
33 71 
33 73 
33 76 
33 77 
33 79 
34 42 
34 43 
34 45 
34 47 
34 49 
34 52 
34 53 
34 56 
34 57 
34 60 
34 62 
34 64 
34 66 
34 67 
34 69 
34 72 
34 74 
34 75 
34 78 
34 80 
35 36 
35 41 
35 43 
35 46 
35 48 
35 50 
35 52 
35 53 
35 56 
35 57 
35 60 
35 61 
35 63 
35 65 
35 67 
35 70 
35 72 
35 73 
35 75 
35 78 
35 79 
36 42 
36 44 
36 45 
36 47 
36 49 
36 51 
36 54 
36 55 
36 58 
36 59 
36 62 
36 64 
36 66 
36 68 
36 69 
36 71 
36 74 
36 76 
36 77 
36 80 
37 38 
37 41 
37 43 
37 45 
37 48 
37 50 
37 52 
37 54 
37 55 
37 58 
37 59 
37 62 
37 63 
37 65 
37 67 
37 69 
37 72 
37 74 
37 75 
37 77 
37 80 
38 42 
38 44 
38 46 
38 47 
38 49 
38 51 
38 53 
38 56 
38 57 
38 60 
38 61 
38 64 
38 66 
38 68 
38 70 
38 71 
38 73 
38 76 
38 78 
38 79 
39 40 
39 41 
39 44 
39 45 
39 47 
39 50 
39 52 
39 54 
39 56 
39 57 
39 60 
39 61 
39 64 
39 65 
39 67 
39 69 
39 71 
39 74 
39 76 
39 77 
39 79 
40 42 
40 43 
40 46 
40 48 
40 49 
40 51 
40 53 
40 55 
40 58 
40 59 
40 62 
40 63 
40 66 
40 68 
40 70 
40 72 
40 73 
40 75 
40 78 
40 80 
41 42 
43 44 
45 46 
47 48 
49 50 
51 52 
53 54 
55 56 
57 58 
59 60 
61 62 
63 64 
65 66 
67 68 
69 70 
71 72 
73 74 
75 76 
77 78 
79 80 
